(declare-const delta_param0@pos Int)
(declare-const delta_i Int)
(declare-const delta_param0 Int)
(declare-const delta_param0@width Int)
(declare-const delta_j Int)
(assert (exists
         ((mem_32@width?1 Int) (mem_32@pos?2 Int) (mem_32?3 Int) (tr?4 Real)
            (phi_mem_34@width?5 Int) (mem_34@width?6 Int)
            (phi_mem_33@width?7 Int) (mem_33@width?8 Int)
            (phi_mem_32@width?9 Int) (phi_mem_34@pos?10 Int)
            (mem_34@pos?11 Int) (phi_mem_33@pos?12 Int) (mem_33@pos?13 Int)
            (phi_mem_32@pos?14 Int) (phi_mem_34?15 Int) (mem_34?16 Int)
            (phi_mem_33?17 Int) (mem_33?18 Int) (phi_mem_32?19 Int)
            (tr?20 Real) (type_err?21 Int) (type_err?22 Int) (tr?23 Real)
            (|S1,0?24| Real) (|i'?25| Int) (KSUM1?26 Int) (|K1,0?27| Int)
            (K?28 Int) (|param0@width'?29| Int) (|param0@pos'?30| Int)
            (|param0'?31| Int) (|j'?32| Int) (|i'?33| Int) (eps?34 Real)
            (stddev?35 Int) (stddev@pos?36 Int) (stddev@width?37 Int)
            (n?38 Int) (i?39 Int) (m?40 Int) (j?41 Int) (param0?42 Int)
            (param0@pos?43 Int) (param0@width?44 Int))
         (and (< (- eps?34) 0) (<= (- j?41) 0)
                (= (+ (* 36028797018963968 eps?34) -3602879701896397) 0)
                (< (+ (- m?40) j?41) 0) (<= (- K?28) 0) (<= (- |K1,0?27|) 0)
                (= (+ |K1,0?27| (- K?28)) 0) (<= (+ KSUM1?26 (- K?28)) 0)
                (= (+ (- |S1,0?24|) |i'?25| (- |K1,0?27|)) 0)
                (= (+ (- KSUM1?26) |K1,0?27|) 0) (= |S1,0?24| 0)
                (or (and (= K?28 0) (= (- |i'?25|) 0))
                      (and (<= (+ (- K?28) 1) 0) (<= (+ (- n?38) 1) 0)
                             (<= (+ (- n?38) |i'?25|) 0)
                             (<= (+ (- |i'?25|) 1) 0)))
                (= (+ |i'?25| (- K?28)) 0) (<= (- K?28) 0) (<= (- |i'?25|) 0)
                (<= (+ n?38 (- |i'?25|)) 0)
                (or (and (<= (+ tr?20 (- eps?34)) 0)
                           (= (+ (- phi_mem_32?19) stddev?35 (* 8 j?41)) 0)
                           (= (+ (- phi_mem_33?17) mem_33?18) 0)
                           (= (+ (- phi_mem_34?15) mem_34?16) 0)
                           (= (+ (- phi_mem_32@pos?14) stddev@pos?36
                                   (* 8 j?41)) 0)
                           (= (+ (- phi_mem_33@pos?12) mem_33@pos?13) 0)
                           (= (+ (- phi_mem_34@pos?10) mem_34@pos?11) 0)
                           (= (+ (- phi_mem_32@width?9) stddev@width?37) 0)
                           (= (+ (- phi_mem_33@width?7) mem_33@width?8) 0)
                           (= (+ (- phi_mem_34@width?5) mem_34@width?6) 0))
                      (and (< (+ (- tr?4) eps?34) 0)
                             (= (+ mem_32?3 (- phi_mem_32?19)) 0)
                             (= (+ (- phi_mem_33?17) stddev?35 (* 8 j?41)) 0)
                             (= (+ (- phi_mem_34?15) stddev?35 (* 8 j?41)) 0)
                             (= (+ mem_32@pos?2 (- phi_mem_32@pos?14)) 0)
                             (= (+ (- phi_mem_33@pos?12) stddev@pos?36
                                     (* 8 j?41)) 0)
                             (= (+ (- phi_mem_34@pos?10) stddev@pos?36
                                     (* 8 j?41)) 0)
                             (= (+ mem_32@width?1 (- phi_mem_32@width?9)) 0)
                             (= (+ (- phi_mem_33@width?7) stddev@width?37) 0)
                             (= (+ (- phi_mem_34@width?5) stddev@width?37) 0)))
                (= (+ (- type_err?21) |param0@width'?29|) 0)
                (= (+ (- type_err?22) |param0@pos'?30|) 0)
                (= (+ (- tr?23) |param0'?31|) 0)
                (= (+ |j'?32| (- j?41) -1) 0) (= (+ |i'?33| (- |i'?25|)) 0)
                (= delta_i (+ |i'?33| (- i?39)))
                (= delta_j (+ |j'?32| (- j?41)))
                (= delta_param0 (+ |param0'?31| (- param0?42)))
                (= delta_param0@pos (+ |param0@pos'?30| (- param0@pos?43)))
                (= delta_param0@width (+ |param0@width'?29|
                                           (- param0@width?44))))))
(check-sat)
